WARNING: for repeatability, setting FPU to use double precision
============================[ Problem Statistics ]=============================
|                                                                             |
|  Number of variables:            50                                         |
|  Number of clauses:             218                                         |
|  Parse time:                   0.00 s                                       |
|                                                                             |
============================[ Search Statistics ]==============================
| Conflicts |          ORIGINAL         |          LEARNT          | Progress |
|           |    Vars  Clauses Literals |    Limit  Clauses Lit/Cl |          |
===============================================================================
===============================================================================
restarts              : 1
conflicts             : 47             (187251 /sec)
decisions             : 50             (0.00 % random) (199203 /sec)
propagations          : 623            (2482072 /sec)
conflict literals     : 149            (20.32 % deleted)
Memory used           : 20.00 MB
CPU time              : 0.000251 s

UNSATISFIABLE
